# Tutorial 2: Pulling on a carbon nanotube with unbreakable bonds (OPLS-AA)

units real
atom_style molecular
boundary f f f

# Force field styles
pair_style lj/cut 14.0
bond_style harmonic
angle_style harmonic
dihedral_style opls
improper_style harmonic
special_bonds lj 0.0 0.0 0.5

# System setup
read_data unbreakable.data
include unbreakable.inc

# Group definitions
group carbon_atoms type 1
variable xmax equal bound(carbon_atoms,xmax)-0.5
variable xmin equal bound(carbon_atoms,xmin)+0.5

region rtop block ${xmax} INF INF INF INF INF
region rbot block INF ${xmin} INF INF INF INF
region rmid block ${xmin} ${xmax} INF INF INF INF

group cnt_top region rtop
group cnt_bot region rbot
group cnt_mid region rmid

# Assign molecule IDs (for coloring)
set group cnt_top mol 1
set group cnt_bot mol 2
set group cnt_mid mol 3

# Defect creation: delete atoms randomly from middle region
variable xmax_del equal ${xmax}-2
variable xmin_del equal ${xmin}+2
region rdel block ${xmin_del} ${xmax_del} INF INF INF INF
group rdel region rdel
delete_atoms random fraction 0.02 no rdel NULL 2793 bond yes

# Initial velocities for central atoms
reset_atoms id sort yes
velocity cnt_mid create 300 48455 mom yes rot yes

# Apply dynamics and thermostat
fix mynve1 cnt_top nve
fix mynve2 cnt_bot nve
fix mynvt cnt_mid nvt temp 300 300 100

# Freeze edge atoms
fix mysf1 cnt_top setforce 0 0 0
fix mysf2 cnt_bot setforce 0 0 0
velocity cnt_top set 0 0 0
velocity cnt_bot set 0 0 0

# Observables
variable Lcnt equal xcm(cnt_top,x)-xcm(cnt_bot,x)
variable Fcnt equal f_mysf1[1]-f_mysf2[1]
compute Tmid cnt_mid temp

# VMD-compatible trajectory output
dump traj all custom 100 dump.cnt.lammpstrj id type x y z
dump_modify traj sort id

# Thermodynamic output
thermo 100
thermo_style custom step temp etotal v_Lcnt v_Fcnt
thermo_modify temp Tmid line yaml

# Timestep and run parameters
timestep 1.0

# Equilibration
run 5000

# Deformation
velocity cnt_top set 0.0005 0 0
velocity cnt_bot set -0.0005 0 0
run 10000

